Al 
 1.0000000000000000
    17.1214407669999993    0.0000000000000000    0.0000000000000000
     0.0000000000000000   11.4142938449999995    0.0000000000000000
     0.0000000000000000    0.0000000000000000   30.0889057250000000
  Al
 144
Direct
  0.0806684448345059  0.1540419428373320  0.3239928393906389
  0.2459816353841783  0.1266447157949437  0.3264871142135894
  0.3908064800771097  0.1252306992802847  0.3287440922712386
  0.5770875322037086  0.1149094300366682  0.3256808369690221
  0.7485713483121617  0.1298310714726479  0.3225035861619059
  0.9156846210172681  0.1089519874718102  0.3257539536193950
  0.0941567956773343  0.3974017194227928  0.3349663192179781
  0.2577446641351336  0.3841569228499216  0.3319336399695539
  0.4209236884953328  0.3673998634472687  0.3296985969070166
  0.5799336711860027  0.3456911179598251  0.3242324625948158
  0.7630683759500694  0.3810581766217007  0.3246515539408171
  0.9343273278048424  0.3794645607356011  0.3306617426014751
  0.0844958096510407  0.6245125714126033  0.3313005162470062
  0.2445057081918414  0.6212701456872298  0.3313390686626574
  0.4103883601631713  0.6310797757458645  0.3306866687322840
  0.5723589581834635  0.6153337293902478  0.3269068702564125
  0.7422961754769946  0.6409524846081269  0.3256698694714661
  0.9033001492379604  0.6043378673856106  0.3340038382203413
  0.0818178808117591  0.8763117662667814  0.3226375225714527
  0.2471777964011573  0.8620778590092448  0.3292283239057541
  0.4185401274063235  0.8811250294213887  0.3369118868147206
  0.5879102195301833  0.8789251561448654  0.3342873314147419
  0.7512697193563231  0.8907734580929743  0.3223530323318197
  0.9060288915579437  0.8604465710598674  0.3244986736718555
  0.0005332495158700  0.0079987427378167  0.3940618548366966
  0.1681178610592100  0.0164548068019358  0.3930565008940683
  0.3290529153865805  0.9950059245211241  0.4032602618020267
  0.5000496229558926  0.0116651981986889  0.3997297246342448
  0.6687217597988493  0.0070315344155221  0.4018637337799030
  0.8314107553049247  0.9910634992943799  0.3982115570937733
  0.0071477629520453  0.2440492629528936  0.3978865203480244
  0.1773302867041365  0.2702471166318568  0.3978453091450869
  0.3313103188683303  0.2557083284901187  0.3973025841902730
  0.4903173812440174  0.2351814344762035  0.3933712348390829
  0.6616002796816498  0.2593852970849289  0.3996556109386394
  0.8396840076513638  0.2340994577750859  0.3939339006985439
  0.0020383798580355  0.4903877608207834  0.4048166494097386
  0.1667295433163589  0.5230967487853385  0.4047172772349135
  0.3432094342974869  0.5030762373894362  0.4004150270572859
  0.4950196724294167  0.4851154241508841  0.3996153967809343
  0.6540676192148637  0.4884726182550805  0.3915635918328166
  0.8320175967583628  0.4865127948701413  0.3945178368562953
  0.9903804376488312  0.7578620383764968  0.3987615937136245
  0.1775516465798372  0.7635268653800810  0.3995143628640552
  0.3391799836841383  0.7549963332839010  0.3981789869495163
  0.5004356885966266  0.7622793068194400  0.4065362200871464
  0.6653926007183902  0.7281895939310296  0.4032343386259854
  0.8301789664451549  0.7645159760647463  0.3977386253052245
  0.0799453748447501  0.1439344406504545  0.4647151387889166
  0.2468810923988988  0.1169007928234215  0.4676411341974784
  0.4139359588043482  0.1146536104441772  0.4677936821180292
  0.5894194383133248  0.1326871395258004  0.4642990385786122
  0.7497085189664868  0.1173248225589202  0.4618649188180139
  0.9116218788131150  0.1395609769322528  0.4618928360845200
  0.0887028154153471  0.3893679329051827  0.4676727072965031
  0.2554148368418089  0.3750210094578129  0.4678066437060499
  0.4184671195317520  0.3740686947419304  0.4633747776482157
  0.5782065969051400  0.3633330328022584  0.4678418726375932
  0.7483721828303306  0.3545466811135876  0.4620294312813532
  0.9148698531370506  0.3788714447625998  0.4711783183334761
  0.0914105314674538  0.6286135697429122  0.4669867401766403
  0.2524880971659877  0.6217090690291407  0.4732717809730184
  0.4175495565641377  0.6231143245988513  0.4683988885740710
  0.5866457231426054  0.6124084498720035  0.4703763616182489
  0.7542899091115957  0.5999083336197396  0.4661389193807247
  0.9124056913545143  0.6378397208679887  0.4632322001799885
  0.0760736212404758  0.8792423023519946  0.4667122203893309
  0.2517317355854273  0.8664609597668897  0.4689372929995446
  0.4097698374498018  0.8875135104777041  0.4689067169457523
  0.5790330460452890  0.8792256565565928  0.4674776187793716
  0.7365548362206941  0.8711541979757049  0.4702075286255695
  0.9172201226352553  0.8781918650526910  0.4651950498940919
  0.9941949530794414  0.0068545633275661  0.5353112588144812
  0.1594532865050679  0.0148173861910947  0.5276735599862031
  0.3309394388655073  0.0055921111605131  0.5336697900136080
  0.5050766531673859  0.0051575682910764  0.5395826005899057
  0.6692001073930416  0.0101101304703620  0.5351410964281587
  0.8287783833793758  0.9819705145325179  0.5237339019247435
  0.9953794328364889  0.2420105910634194  0.5347841542349743
  0.1616224964743354  0.2604988131878604  0.5360131786580618
  0.3350775251962182  0.2481134653144196  0.5362827132192093
  0.4988750722697869  0.2421288638202217  0.5336634753938031
  0.6665671514044961  0.2502634012047374  0.5327820874083982
  0.8301737098781857  0.2465627780585668  0.5345923892019506
  0.9939630800698025  0.4970381941310536  0.5313174279620633
  0.1609385587053499  0.5149648396843073  0.5412131018932228
  0.3317851620845432  0.5076380614240268  0.5368952313402883
  0.5041205420419980  0.4826790053607561  0.5312888459987357
  0.6733825825114920  0.4786507228735183  0.5293529165059060
  0.8335875580931478  0.4765226893455712  0.5389793882243287
  0.0013602827190156  0.7526764350615858  0.5378045365921994
  0.1670601229724185  0.7559591611337215  0.5373153197315221
  0.3327967591946055  0.7526659219276479  0.5384659099296639
  0.5059165357564561  0.7429114858221877  0.5322995175159365
  0.6685973543805795  0.7554273717753585  0.5331001448375206
  0.8369797959772365  0.7535131053041505  0.5351357788535861
  0.0849764934972193  0.1411414514009298  0.5983268439384231
  0.2445763798144266  0.1261304483264773  0.5979097466828863
  0.4248515121472780  0.1174536084496605  0.6033074172224653
  0.5876958684104415  0.1360942710162023  0.5935722675737156
  0.7534640440344432  0.1098079317932611  0.6018198257357862
  0.9096629315226132  0.1290136753089696  0.6008171305804442
  0.0712416680698376  0.3895413996151595  0.5971147692842858
  0.2477052052870616  0.3687315270794135  0.5981194585300924
  0.4288821308866196  0.3649354096333062  0.6025602979950179
  0.5903562753598258  0.3852616780079049  0.6004242947588948
  0.7543383863403111  0.3584400450486213  0.6004764734593884
  0.9124302220003704  0.3929169917037474  0.6143709634691277
  0.0808705306313197  0.6397084304254654  0.6053835977446469
  0.2540376162958927  0.6226964275248165  0.6012225956416033
  0.4210037051258632  0.6408920340879836  0.6020149142529176
  0.5889410907191325  0.6268578763752688  0.5989672793260081
  0.7497517396282332  0.6185051914615398  0.5961276945042507
  0.9171722294695365  0.6191894212620037  0.6009816430437833
  0.0747232675924019  0.8873742114530259  0.6004635118713677
  0.2512329457863550  0.8755250334104221  0.5972796140960357
  0.4193110905617982  0.8793027528721380  0.6041465969597005
  0.5783765592371424  0.8761488126907425  0.5980985205802130
  0.7543138556944552  0.8719435591155487  0.6049445654939982
  0.9134651816302954  0.8677426860128289  0.5980619622550265
  0.0015296609880215  0.0048903594701526  0.6657646570162863
  0.1710060525772574  0.0085690802539524  0.6685663541192142
  0.3335145726173922  0.9953423448071396  0.6693327495544872
  0.5024839975256038  0.9814247076622374  0.6758341491662871
  0.6584077913423885  0.9900866539326421  0.6749457818642556
  0.8415641064373283  0.9988195638571280  0.6664120717204979
  0.9991863554481438  0.2546736608917221  0.6728539809667671
  0.1774091352086737  0.2391194792304736  0.6693995515850553
  0.3257745697868231  0.2368609076227965  0.6651175746604856
  0.5094962578624443  0.2490964433376211  0.6715345577759458
  0.6610506764018758  0.2429050835426430  0.6781373236530356
  0.8305072098492283  0.2629343558834936  0.6795408309917857
  0.0117741259478902  0.5165934993502002  0.6739766538984029
  0.1643985478970410  0.4987325608840589  0.6713115519923083
  0.3309277576055758  0.4915538425934049  0.6634774352532556
  0.5145881190665570  0.5112230400968796  0.6655964887204285
  0.6720182113515003  0.4880424558581180  0.6682270263918014
  0.8298127589463044  0.5005346872599284  0.6801706312302256
  0.9896059701153771  0.7531048452695586  0.6761658328802518
  0.1597885386651001  0.7518599149924023  0.6709725566133063
  0.3440434762565914  0.7372860830708708  0.6743744749461140
  0.5100043926694618  0.7427581692855919  0.6728792394459869
  0.6752942206992715  0.7403769444486384  0.6696650979652734
  0.8373874719488437  0.7564243673104774  0.6666497008342100
