Al 
 1.0000000000000000
    17.1214407669999993    0.0000000000000000    0.0000000000000000
     0.0000000000000000   11.4142938449999995    0.0000000000000000
     0.0000000000000000    0.0000000000000000   30.0889057250000000
  Al
 144
Direct
  0.0802444150989948  0.1527821189537635  0.3247027355960783
  0.2444572309631260  0.1284345768478856  0.3265196843578465
  0.3915348066338347  0.1217613650807498  0.3281957173934414
  0.5771225759835028  0.1124344630887676  0.3251221592904904
  0.7477314657230913  0.1307579794481802  0.3226624487022617
  0.9134984732211000  0.1060599995443695  0.3263834215094241
  0.0930459078578548  0.3971143604284879  0.3351766957620058
  0.2598764940726206  0.3866283854198429  0.3316667641956926
  0.4228429195020676  0.3676837180635944  0.3301007384840680
  0.5807764740900558  0.3522302872692516  0.3240868939908914
  0.7636501026946548  0.3827113669334488  0.3241267758001857
  0.9323619558213784  0.3785954749967277  0.3309691648814523
  0.0838036950001031  0.6256295918935142  0.3320546147910801
  0.2426699981936164  0.6220796570004546  0.3315464540709880
  0.4080480197359083  0.6329493613978361  0.3311127393949120
  0.5737040552645682  0.6101253476184711  0.3257333480179263
  0.7420158252386402  0.6431856494754539  0.3281209390010145
  0.9025764951852080  0.6078606433493303  0.3332204930161182
  0.0848152921101654  0.8782470590058654  0.3221596055567421
  0.2440197677786937  0.8656006349729645  0.3283635533408884
  0.4207759205572002  0.8829245275137737  0.3370840432915079
  0.5888867728604513  0.8776530669383692  0.3344059797973926
  0.7513392228529152  0.8941341565751499  0.3223639998293756
  0.9065282654200126  0.8573548335876051  0.3256409551597277
  0.0040078402824755  0.0052223992836939  0.3950140330335992
  0.1672248287374518  0.0145177618738621  0.3943978590800015
  0.3279338506851490  0.9929987920334638  0.4033423518594909
  0.4990824146335698  0.0124203916532342  0.3999680184447784
  0.6680249726439392  0.0075282799940919  0.4021033569840799
  0.8319434207577983  0.9892815230918913  0.3979549841206464
  0.0070881885263949  0.2435928177210861  0.3977353018211167
  0.1768893191417248  0.2696566289423400  0.3982265127722587
  0.3306141157764168  0.2513304842994429  0.3967977469542887
  0.4907887200822508  0.2331594083821311  0.3941166923244763
  0.6621492988984272  0.2565528835831368  0.3985535436084723
  0.8392570576008698  0.2372008322867914  0.3936793218158817
  0.0019040453688240  0.4902055331658584  0.4043556821639780
  0.1646164033947623  0.5224291647802765  0.4045447884097154
  0.3406179467816980  0.5035554610781093  0.4004991112052149
  0.4957661049390353  0.4879198026288415  0.4004339709167007
  0.6536564388652771  0.4859433334485004  0.3923805042265292
  0.8314189321868767  0.4893522171278920  0.3952885528209086
  0.9921145206856526  0.7595642899799555  0.3974857081646163
  0.1780837279697140  0.7649592798791313  0.4000045767699650
  0.3355517843494344  0.7556078472412938  0.3979772514641691
  0.5005571736999135  0.7621680428185964  0.4050785399574381
  0.6644528433569064  0.7264190069569740  0.4025560155195707
  0.8325701203531197  0.7601933258272450  0.3975189430056948
  0.0801130009247662  0.1434727388516780  0.4634814614880781
  0.2476584802473358  0.1202141822028764  0.4691845602171696
  0.4135387959666794  0.1154701305133607  0.4683766212305483
  0.5898855205845891  0.1301201826559425  0.4648268078549407
  0.7489836967877412  0.1191199401788311  0.4629985592472057
  0.9127584654044436  0.1400936423851107  0.4619383678167977
  0.0894819554527738  0.3886355179075032  0.4671811639969503
  0.2548961889008531  0.3766873411869835  0.4681964883919021
  0.4163276967753096  0.3705502992506848  0.4635818307081355
  0.5778514866032243  0.3656555593080582  0.4684304616730956
  0.7470703064109722  0.3531440538273615  0.4632571263107974
  0.9145924232136791  0.3798036093051011  0.4714950463689553
  0.0907756549901803  0.6303000516454639  0.4658946432987968
  0.2547910575614702  0.6206104465326213  0.4734313082101958
  0.4183602360033793  0.6241227093624030  0.4695916870203827
  0.5857842302226621  0.6153880472489274  0.4700995153920640
  0.7535656709958467  0.6012119622280497  0.4656118148012178
  0.9125849986944617  0.6359780200664705  0.4626349700858056
  0.0773235160531394  0.8797267826076368  0.4666892883489867
  0.2538366986250720  0.8654122746565756  0.4676640662378226
  0.4116645378106806  0.8863088805473101  0.4694946412844331
  0.5796036755929397  0.8766534431197659  0.4669036530739438
  0.7365980568824404  0.8711577023536843  0.4695684226316276
  0.9154632611415674  0.8806896104574572  0.4655423539833634
  0.9934444321288467  0.0075948631756992  0.5353471524428461
  0.1590134870686493  0.0144958595114913  0.5293073847736283
  0.3307980956203369  0.0037987457295918  0.5337292803791388
  0.5036030622270353  0.0053871050487224  0.5387184947218615
  0.6693075749844107  0.0107277770892186  0.5352248482276768
  0.8281925681938144  0.9829587491226884  0.5246405483893681
  0.9966713801849058  0.2426589009895951  0.5346937554672404
  0.1617101059238212  0.2607537566858565  0.5353408378230412
  0.3328534133052729  0.2461072089212542  0.5364581931801045
  0.5003609285330655  0.2417836825892579  0.5337977441517607
  0.6677650646104647  0.2506112107191858  0.5331363708142962
  0.8317956528196656  0.2465540171136185  0.5336269170686166
  0.9933912823961586  0.4967490829477590  0.5304287283116209
  0.1635557449929879  0.5157524486351613  0.5408355540985698
  0.3308220422031963  0.5076030176442334  0.5365259922559048
  0.5027152864722463  0.4828156761019499  0.5319415782775198
  0.6749945963820301  0.4773935272734343  0.5295772516831866
  0.8337908120159547  0.4783773813911307  0.5379627344357337
  0.0032707527808019  0.7546047190447112  0.5377533549369382
  0.1664363436920799  0.7573565318529787  0.5382316043000597
  0.3343766496003321  0.7541193626945741  0.5395347424187524
  0.5053476583977952  0.7435895829611877  0.5321645840611574
  0.6659754955889688  0.7552179851910935  0.5336701223620188
  0.8389586014096216  0.7515453970687576  0.5347426106836259
  0.0841383630971388  0.1451478315257969  0.5989616294030247
  0.2454238552224522  0.1263354544382680  0.5988536161695193
  0.4261866801574410  0.1162656243146683  0.6030897290134003
  0.5869821434286308  0.1335194292958909  0.5940784342033429
  0.7532929135764478  0.1126885304922689  0.6023432744827746
  0.9099812458557449  0.1276460918025367  0.6005492577613506
  0.0721317800766130  0.3880117386271827  0.5970954930764601
  0.2491863890463676  0.3681822158311538  0.5980955294445159
  0.4297307744206385  0.3640601912329690  0.6018377725499687
  0.5905075476759380  0.3829181252342291  0.6007081203017063
  0.7536713863982263  0.3616474269942015  0.6007559784728596
  0.9115745697103926  0.3926226239534839  0.6131711857061893
  0.0799716576795958  0.6394823980457988  0.6048202671883641
  0.2539313168305166  0.6212517477028383  0.6012890653237607
  0.4237044124220110  0.6383031748557548  0.6016127726758664
  0.5879084673411936  0.6252730214341176  0.5985977078932139
  0.7498773131724961  0.6202705218686264  0.5972580114493345
  0.9184005139513268  0.6190869182061083  0.6012608157088438
  0.0756729540248276  0.8850893570105037  0.6004758087625668
  0.2499538478238628  0.8789137669164326  0.5975903598601209
  0.4168901494410082  0.8784021277314507  0.6039850756320584
  0.5788163586735610  0.8772588244156948  0.5982886238711828
  0.7515775205555165  0.8737045090501612  0.6052599641358344
  0.9126691037659682  0.8674509465460498  0.5980177599163919
  0.0041264050707795  0.0060494324868154  0.6655745537253166
  0.1723838571861702  0.0037382952094484  0.6693965604493581
  0.3332984693086606  0.9951539844907508  0.6683961917328917
  0.5012878365086249  0.9821387246755255  0.6754044226711405
  0.6589013245744917  0.9885105599364391  0.6732926808690050
  0.8394200111769133  0.9994188124915931  0.6657703069392698
  0.0002604920964710  0.2571898042808797  0.6716080067747296
  0.1762632036093998  0.2391343728368858  0.6691532814126626
  0.3283053147509686  0.2395137217531481  0.6648457136604625
  0.5110995107880338  0.2447948193679957  0.6711340779409485
  0.6616703672412384  0.2409785517485072  0.6779126561273441
  0.8313161370994802  0.2634170839501461  0.6788256172117738
  0.0110931084938875  0.5145145271139636  0.6742661293641977
  0.1638933334050064  0.5041179137437916  0.6715943804898874
  0.3287649723292706  0.4911280606689165  0.6641195323828947
  0.5142195753157203  0.5094042679256082  0.6654755138989024
  0.6720503348163118  0.4855341973194138  0.6682137324553701
  0.8301649489332372  0.4996463274421686  0.6794780171421472
  0.9906812300920657  0.7562561571674696  0.6763748800306363
  0.1599263775322910  0.7528227428422228  0.6701662793687391
  0.3428233686567529  0.7367490371455390  0.6731567503689934
  0.5096790695803713  0.7449203704988375  0.6728586338445182
  0.6755985175204853  0.7389199993037328  0.6696966710642981
  0.8373097915702996  0.7534149827207293  0.6669770640188345
