Al 
 1.0000000000000000
    17.1214407669999993    0.0000000000000000    0.0000000000000000
     0.0000000000000000   11.4142938449999995    0.0000000000000000
     0.0000000000000000    0.0000000000000000   30.0889057250000000
  Al
 144
Direct
  0.0800522583731227  0.1520461995781045  0.3250723070288725
  0.2435355795545357  0.1293413346500368  0.3265529191989252
  0.3921060202444819  0.1199706279333130  0.3279261828322937
  0.5771488588183485  0.1112324614418581  0.3248758891180978
  0.7472957547276489  0.1313186799248728  0.3227957204149869
  0.9124360626303361  0.1046740180535452  0.3267051347710652
  0.0925097380270019  0.3968199926782243  0.3352657651360965
  0.2609354002854052  0.3878338914447318  0.3315205308949467
  0.4237423765167882  0.3679158831047248  0.3302865212456975
  0.5812466448022960  0.3555839769954688  0.3240410299102029
  0.7638802235153042  0.3834919671283442  0.3238848261571334
  0.9313433499553572  0.3779953502677677  0.3311227098472356
  0.0833609752487017  0.6263865375370491  0.3324590828070069
  0.2418213546595976  0.6225071911139327  0.3316551320013151
  0.4069406362944082  0.6338543670109976  0.3313297629071554
  0.5743669667656772  0.6075715321660357  0.3251839760948967
  0.7418458629066378  0.6442518564756645  0.3293649191025873
  0.9023235959076925  0.6098152101673006  0.3327987428828305
  0.0862503348927423  0.8792274087455825  0.3219801374149175
  0.2425193099405009  0.8674816098533690  0.3279261828322937
  0.4218873924396762  0.8838032502920903  0.3371322338110719
  0.5893674567066299  0.8768856081608963  0.3344837493255166
  0.7513111878290798  0.8957514270126100  0.3224118580005289
  0.9068950569818597  0.8558286769776077  0.3262135914715124
  0.0057349145633382  0.0037426756819226  0.3954889589126127
  0.1667324636313418  0.0135076249213207  0.3950971201362957
  0.3273620530115052  0.9921454759954974  0.4033283932262379
  0.4986192526772884  0.0125631950558918  0.4000976343249851
  0.6676523404521264  0.0076395439949356  0.4021342653862831
  0.8322208506811698  0.9885438515272429  0.3978177242269917
  0.0070034993918920  0.2435560217523032  0.3976379237367563
  0.1765552351076857  0.2692597581361811  0.3984319040901246
  0.3302893767503229  0.2490771692587348  0.3965936850300660
  0.4910900965884818  0.2323630384863287  0.3945224897340463
  0.6624436666486994  0.2549531350355735  0.3979320520803021
  0.8389767073625154  0.2388978273232811  0.3935277709405632
  0.0017621180606570  0.4902843816703933  0.4041027650233698
  0.1637000085531412  0.5219411801466550  0.4044061991224175
  0.3391864083771006  0.5038463244503936  0.4005383283176876
  0.4962216740763613  0.4894529679947976  0.4008121834081755
  0.6535513075258943  0.4847684907309306  0.3928065748891571
  0.8310719987669132  0.4907268093902835  0.3957714550617809
  0.9931173568507664  0.7603238639069748  0.3968196819494006
  0.1781760099231724  0.7656154746557605  0.4002667996660753
  0.3337481978160209  0.7557874466127344  0.3979224139763893
  0.5006097393696051  0.7619516474783727  0.4043008446761984
  0.6639768320147003  0.7256804592978305  0.4021934234034029
  0.8336407078258358  0.7578401360141259  0.3974275471927286
  0.0802549282329331  0.1430872572739519  0.4628991870723806
  0.2480509705810321  0.1220066715393028  0.4699017680876462
  0.4133840192725879  0.1161289535734745  0.4686607791217705
  0.5899947403649479  0.1287236880311802  0.4651315713476317
  0.7487010102974005  0.1200617417607756  0.4636067568389445
  0.9133734837398337  0.1401575972832335  0.4620121491639922
  0.0898598442115558  0.3881247548170161  0.4669721168465657
  0.2546152545995021  0.3775143743901049  0.4684078619811622
  0.4152238177117890  0.3686877223546719  0.4637430196873668
  0.5777066389800746  0.3668523043879987  0.4686587850313058
  0.7465043493672942  0.3526148927524829  0.4638613357216067
  0.9144335580786115  0.3802206302846412  0.4715638424899881
  0.0903119089709023  0.6313364714328502  0.4654227085554804
  0.2559299804047852  0.6201601339622776  0.4734509167664322
  0.4187684960379830  0.6246685162326835  0.4701756231781341
  0.5853590323611578  0.6168747796066574  0.4699306823993846
  0.7531924547410374  0.6019750405330485  0.4653595623574310
  0.9127257578766356  0.6349538656020118  0.4623820529451973
  0.0780150466410804  0.8799694607827053  0.4666690150959287
  0.2547887213094839  0.8649610859917372  0.4670691625825153
  0.4127222758974721  0.8854616971708075  0.4698087105326261
  0.5798886983352667  0.8754549458508355  0.4666460830555845
  0.7367160376077480  0.8710341730299130  0.4691569752990743
  0.9146315554344493  0.8819257797896652  0.4657002194784868
  0.9930805608819826  0.0079050006268697  0.5353145822985891
  0.1587868706259795  0.0141699523594138  0.5301714906416723
  0.3307320965017242  0.0028683333760802  0.5338077146040844
  0.5027935509137867  0.0053240262450944  0.5381628081790270
  0.6693408665752153  0.0108740848698556  0.5352424626934484
  0.8279507661132336  0.9837594994909650  0.5252065377329371
  0.9972846463313061  0.2431565226626597  0.5346239623009753
  0.1617959631843172  0.2609140819784108  0.5349373668523467
  0.3317775692655877  0.2451759204732477  0.5365133630162949
  0.5010448663020509  0.2416785512498781  0.5338216732373374
  0.6683882598278068  0.2506769178062982  0.5333052038069755
  0.8326174294558421  0.2463586480412709  0.5331380325563502
  0.9931827719063825  0.4967797462550782  0.5300202721147647
  0.1648360110814732  0.5160345510624973  0.5405789811254427
  0.3304675159642773  0.5074058963828963  0.5363518416886528
  0.5019466595687577  0.4830592303715132  0.5323164672848866
  0.6757281795057242  0.4770474699479756  0.5297201614998247
  0.8339099608672553  0.4795846396050093  0.5374249947070815
  0.0041959085673716  0.7554615394606570  0.5376363682963415
  0.1661016755950443  0.7580845663781841  0.5386393958000945
  0.3352270453233406  0.7548587864482125  0.5400023566327287
  0.5049814508989448  0.7440013473737588  0.5321107436186099
  0.6647016541934458  0.7550024659453649  0.5339825298681579
  0.8398481293534005  0.7503390149493739  0.5344903582398393
  0.0836687764478951  0.1469850016814597  0.5993328625778730
  0.2458951940606857  0.1263284456823093  0.5992999600852051
  0.4267649025240470  0.1157828962480158  0.6030152829693842
  0.5866679175364752  0.1322149245930860  0.5944912109295394
  0.7531439775123219  0.1142602440159977  0.6026108149534575
  0.9102189594953496  0.1270161798607525  0.6004189771843224
  0.0726352423796578  0.3872136165423907  0.5971526570031154
  0.2499112112251131  0.3680253949165789  0.5981158026975738
  0.4300525931317495  0.3637211426634689  0.6014921302027511
  0.5905881483694648  0.3816031073974862  0.6008317539105188
  0.7532853207574923  0.3632541842977234  0.6009550551709205
  0.9112019375185798  0.3922432750372216  0.6125214445631023
  0.0795400351251292  0.6392931616349150  0.6045224830122997
  0.2538308579951062  0.6206761536197337  0.6013794640914946
  0.4250495095031158  0.6368041771750972  0.6014060519643574
  0.5874102616051179  0.6245143236015929  0.5983929812721696
  0.7499672588739681  0.6211404837019947  0.5978456034396047
  0.9189869131998849  0.6191429882537776  0.6014126989325731
  0.0762704504703205  0.8839688321516137  0.6004974114092679
  0.2492669897398945  0.8806580710556432  0.5978210096572065
  0.4156758824711355  0.8778922407354584  0.6038873651992873
  0.5791428498886446  0.8777634548447181  0.5984448276242522
  0.7501202833790699  0.8745674621275707  0.6053576745686055
  0.9123250906609873  0.8674597074909981  0.5980280627171263
  0.0054130958522271  0.0066714595781462  0.6654921313194416
  0.1730222380414231  0.0011748427175698  0.6697917227097830
  0.3332079395441920  0.9950260746945051  0.6679285775189154
  0.5006436150234062  0.9826126917972298  0.6751614759828558
  0.6592132142146609  0.9877641274268423  0.6724225927295666
  0.8383254771213379  0.9997604893445776  0.6654954548035495
  0.0008334578961079  0.2584294779910671  0.6709585979800534
  0.1755179392257743  0.2393385028541816  0.6690343006816012
  0.3297485344154974  0.2409198534173535  0.6647177595223098
  0.5117647585411291  0.2426238572098019  0.6708991076145226
  0.6621218479375883  0.2399482646225848  0.6777375085148597
  0.8317022027402141  0.2635134543445776  0.6784261344220088
  0.0106392915455513  0.5134097719559805  0.6744047186514956
  0.1637338842069423  0.5067400645668240  0.6717010643297497
  0.3277592158491740  0.4908836303048584  0.6644591924587181
  0.5139123581795235  0.5083748568941805  0.6654412820125915
  0.6720941395410547  0.4843532219403802  0.6682090795776190
  0.8303594419110956  0.4993738620542759  0.6790958164697430
  0.9913055934354009  0.7578751797939193  0.6764393556223288
  0.1600636323364854  0.7533746823739670  0.6697508438552562
  0.3421499440217057  0.7365422788447584  0.6725239589948565
  0.5095155319413313  0.7460365148852536  0.6728267283970827
  0.6757054010488579  0.7381893364950428  0.6696996621999951
  0.8372081646088961  0.7517985883777641  0.6671571968574806
