Al 
 1.0000000000000000
    17.1214407669999993    0.0000000000000000    0.0000000000000000
     0.0000000000000000   11.4142938449999995    0.0000000000000000
     0.0000000000000000    0.0000000000000000   30.0889057250000000
  Al
 144
Direct
  0.0804494212107915  0.1534470746753410  0.3243421375703752
  0.2452772554103127  0.1275357038961879  0.3264984140595562
  0.3910961753234093  0.1235188106373829  0.3284685754386968
  0.5771015497156262  0.1136697563264809  0.3253906968064057
  0.7481560795215990  0.1302647382475898  0.3225650706179013
  0.9145830782057338  0.1074854052874613  0.3260666934739449
  0.0935960952006254  0.3973097295008354  0.3350763265419484
  0.2588105791038771  0.3853992248435936  0.3318053534829905
  0.4219019940145905  0.3675093752591228  0.3299059823153472
  0.5803384268426269  0.3489204022677761  0.3241510372341731
  0.7633802655902386  0.3819018556202239  0.3243830164249019
  0.9333577832305332  0.3790904683863078  0.3308152875672583
  0.0841815837588851  0.6250023082352144  0.3316674288925142
  0.2435641986413677  0.6216696447768733  0.3314407672763580
  0.4092003760281444  0.6320242056112934  0.3308980423215441
  0.5730323828185108  0.6127150829451947  0.3263079784201757
  0.7421659294287591  0.6420843986954500  0.3268865970033545
  0.9029024023372951  0.6060234731936675  0.3336229669415802
  0.0833329402248663  0.8772754702110965  0.3223786231594503
  0.2455774637905506  0.8637950042191157  0.3287989297590184
  0.4196568558557687  0.8820265306565709  0.3370102619443133
  0.5884014165103002  0.8783320401718641  0.3343405071604677
  0.7513269575299871  0.8924713292239588  0.3223443912731393
  0.9062385701737130  0.8588993881819941  0.3250673218027108
  0.0022679166156882  0.0066451767433012  0.3945364483672993
  0.1676909110087160  0.0155042442750430  0.3937168771863006
  0.3284998077288270  0.9939563633163152  0.4033200845159682
  0.4995607622277621  0.0121172629580223  0.3998460465780199
  0.6683841713868308  0.0073250260712909  0.4020136229131676
  0.8316724155273889  0.9901225738069303  0.3980872587881393
  0.0071343295031241  0.2437566473916197  0.3978177242269917
  0.1771498112381958  0.2699877926613865  0.3980297625130732
  0.3309552085664147  0.2535443750878835  0.3970337143259470
  0.4905305642377661  0.2341073426255394  0.3937318328647859
  0.6618677805340796  0.2580343593738978  0.3991301681011864
  0.8394936031144814  0.2355958271722591  0.3938165817095364
  0.0019951591962891  0.4902388247566620  0.4045939759745118
  0.1656303367568109  0.5228155224524974  0.4046484811138807
  0.3419653801147891  0.5032970132021339  0.4004595617443313
  0.4953578449044317  0.4864707423343893  0.4000358175205789
  0.6538304896382556  0.4871795027807084  0.3919667304551004
  0.8317354943310187  0.4879460854636865  0.3948684644296748
  0.9912004620960181  0.7587416372493082  0.3981361140045249
  0.1778722971649551  0.7642601564722553  0.3997523243261782
  0.3373699724577623  0.7553432667038547  0.3980613356120979
  0.5004970152112667  0.7622758024414606  0.4058253268364747
  0.6649253503211329  0.7272574293885283  0.4029043166540747
  0.8314130915569110  0.7624264906945718  0.3976242974519140
  0.0800113739633627  0.1437548412790139  0.4640896590798169
  0.2472659899136396  0.1185049218434590  0.4684294646278633
  0.4137227758105995  0.1149733849347910  0.4680864810679319
  0.5896927797957203  0.1314500940990976  0.4645489645835234
  0.7493218692627563  0.1182009170537523  0.4624152877862759
  0.9121720661558855  0.1398947689347838  0.4618968242654495
  0.0890935535600536  0.3890534149815380  0.4674151372781437
  0.2551631056902864  0.3758532992279033  0.4679944205581442
  0.4174128858229399  0.3723506734375647  0.4634575324025015
  0.5780173604942508  0.3644763361180142  0.4681572712794294
  0.7476935016283142  0.3537906115645475  0.4626432787960753
  0.9147384389628219  0.3793497923567781  0.4713644334435164
  0.0911436146780205  0.6293906655598283  0.4664177596973743
  0.2536392853322307  0.6211325988515412  0.4733701561026112
  0.4179525600317722  0.6236014331379779  0.4689964510166645
  0.5862141005881389  0.6138934300407438  0.4702494045253286
  0.7539307103687041  0.6005215997661221  0.4658727083036849
  0.9124804514180754  0.6369461044832599  0.4629184632802062
  0.0766746220639482  0.8794841044325683  0.4667045763758829
  0.2528151724440680  0.8659142768021145  0.4682912076889762
  0.4106786394724675  0.8869966147257532  0.4691922042306176
  0.5793180687876162  0.8779115148143447  0.4671804993001287
  0.7365443230867558  0.8711953744169620  0.4699213766438826
  0.9163300106284800  0.8794394236133318  0.4653728562938625
  0.9938176483836560  0.0072435492832715  0.5353461553976138
  0.1592360150703432  0.0147148831351993  0.5284721932173224
  0.3308664309909358  0.0047090079097223  0.5336830839500395
  0.5043676006895478  0.0053292828120634  0.5391934206008749
  0.6692602658816885  0.0104710814022328  0.5351912810381874
  0.8284664937392064  0.9823568722047388  0.5241490050898154
  0.9960353355816390  0.2422760476953535  0.5347462665161447
  0.1616522836871606  0.2606144576611783  0.5357014358487443
  0.3339578764317901  0.2470884347554660  0.5363814206972128
  0.4996361063543199  0.2419352469368639  0.5337449007544457
  0.6671547187790473  0.2504692834110230  0.5329635496406874
  0.8309791327504582  0.2466249807676999  0.5341148045356509
  0.9936558629336057  0.4968366923972422  0.5308631076845185
  0.1622509482586466  0.5153950020812698  0.5410469276878297
  0.3312641778916011  0.5076792378652839  0.5367084515334264
  0.5034424449029781  0.4826877663057045  0.5315975976723560
  0.6742090316516410  0.4779340775767457  0.5294549474680174
  0.8336815922355958  0.4773558552101566  0.5384831920470248
  0.0023216504113728  0.7536751827856943  0.5378088571215396
  0.1667604986551772  0.7566451431231751  0.5377879191716601
  0.3335612976571179  0.7533860716023998  0.5390222611693201
  0.5056595480379644  0.7432277559348220  0.5322290596528498
  0.6672802923233101  0.7553625407827410  0.5333743322764191
  0.8379995699692507  0.7526072235964940  0.5349583048022262
  0.0845775784705607  0.1431932647078265  0.5986249604628984
  0.2449817195340475  0.1262706234456504  0.5983899901364724
  0.4255465471131983  0.1168228204133814  0.6031871070977607
  0.5873261565336115  0.1348125447702630  0.5937700148781333
  0.7533992130418238  0.1112044264180234  0.6020783927993779
  0.9097949297598384  0.1283127997131039  0.6006821971256650
  0.0716674499943384  0.3887958432000574  0.5970815344432072
  0.2484487174816974  0.3684178852502636  0.5980968588381590
  0.4293394522129353  0.3644649468895814  0.6021950470915638
  0.5904298672973939  0.3841402770545198  0.6005715251048732
  0.7540253285741487  0.3600389175016898  0.6005941247968066
  0.9119851659969825  0.3928477802386557  0.6137873596597870
  0.0804161296199869  0.6396164405035081  0.6051084132605158
  0.2540019884531018  0.6219280926528487  0.6012362219264457
  0.4223523065849473  0.6396690061731980  0.6018168346000892
  0.5884206905891870  0.6260544977235077  0.5987901376230591
  0.7498054734239177  0.6193917990903098  0.5966833810470853
  0.9177942565608854  0.6191026879070153  0.6011165764985625
  0.0751543060838719  0.8862300320427752  0.6004651736134217
  0.2506103346320095  0.8771966217065618  0.5974085652794209
  0.4181067526628672  0.8788717143806807  0.6040718185672737
  0.5785558665770899  0.8767200263013730  0.5981719695789967
  0.7529804398732819  0.8728257862718446  0.6051217071969474
  0.9130487447137398  0.8675446886569969  0.5980293921107694
  0.0028280330294005  0.0054563165138141  0.6656652848414614
  0.1717116006771161  0.0062123860628542  0.6689881042525019
  0.3334006803330607  0.9952617441136151  0.6688654676889219
  0.5019028548440149  0.9817427299638615  0.6756287578484212
  0.6586303193440823  0.9892867796588604  0.6741351840903480
  0.8405034480355540  0.9991025423789588  0.6660767321740145
  0.9997102599560685  0.2559369891532699  0.6722414628456881
  0.1768998322756631  0.2390572765213405  0.6692755856278320
  0.3269748192447781  0.2381575274751480  0.6649796500700094
  0.5103413970184838  0.2469535162032619  0.6713461162270301
  0.6613140888133295  0.2419641580551933  0.6780462601884801
  0.8309178061358181  0.2632225909722933  0.6791975150834436
  0.0114715813156660  0.5155798580196794  0.6741222225023273
  0.1641146932807071  0.5014458255345537  0.6714644322612700
  0.3298232944790586  0.4913514647650987  0.6637921691982702
  0.5144456076953935  0.5103574587359855  0.6655273602509850
  0.6720240519814660  0.4867659861791477  0.6682200470751750
  0.8299827212783067  0.5000335612088844  0.6798369534257962
  0.9901129367964013  0.7546634173758650  0.6762834842176700
  0.1598346796418292  0.7523163602242099  0.6705737385203628
  0.3434553248190436  0.7369969718875764  0.6737739213678233
  0.5098426072194115  0.7438226240968129  0.6728755836134682
  0.6754600945902978  0.7396480338289382  0.6696853712183313
  0.8373705341219431  0.7549621655986026  0.6668065692841011
