Al 
 1.0000000000000000
    17.1214407669999993    0.0000000000000000    0.0000000000000000
     0.0000000000000000   11.4142938449999995    0.0000000000000000
     0.0000000000000000    0.0000000000000000   30.0889057250000000
  Al
 144
Direct
  0.0817244307323077  0.1557363095903372  0.3227309124748837
  0.2475124644981929  0.1231745055009139  0.3264934288333943
  0.3913151989471237  0.1314684920834890  0.3298554653569077
  0.5771424341253862  0.1192005408723557  0.3270424684080132
  0.7501453980879225  0.1285493452267086  0.3226132611374653
  0.9200831994444502  0.1153010442758581  0.3245089764725899
  0.0964235441670293  0.3967928337488845  0.3344611496335831
  0.2536568072221279  0.3792402805449241  0.3323055378412237
  0.4167347886839202  0.3676880985360685  0.3287115221269816
  0.5786528210345209  0.3344376841737072  0.3247070561254185
  0.7614113892287953  0.3772857137269537  0.3258147733785689
  0.9378947845879027  0.3795258873502393  0.3300389216796617
  0.0851528805221839  0.6239553753138901  0.3300688330366325
  0.2487016167592130  0.6196590079112336  0.3309847852567593
  0.4152985777753501  0.6271373505191202  0.3298923560305050
  0.5698422307312357  0.6260448606840645  0.3295221199008892
  0.7426220826290816  0.6361681325718490  0.3210950935969939
  0.9055522961527412  0.5996262311924038  0.3352820502082250
  0.0756209724181327  0.8725533208839519  0.3240629649053148
  0.2537712835694559  0.8562544589020962  0.3308471930146938
  0.4143307853900307  0.8777485612383059  0.3362614809748120
  0.5858934500030211  0.8805117632750064  0.3341889562851492
  0.7505279593506771  0.8837918610636575  0.3226750779418716
  0.9059856708961974  0.8664662163338587  0.3223706467975914
  0.9939543191248538  0.0124519310550481  0.3922901054587953
  0.1692112269887923  0.0196078708888364  0.3906572777166026
  0.3310457383308833  0.9998244442427004  0.4026108530073504
  0.5020220036953156  0.0086934856722186  0.3992923541256501
  0.6697240119009664  0.0050165170774084  0.4006805734375041
  0.8305340767470705  0.9956051731555892  0.3985372585363438
  0.0070017472029023  0.2464190985614144  0.3980703090191892
  0.1771813506400106  0.2704565032161217  0.3973135516878289
  0.3328265464074306  0.2635887984711331  0.3986838241855005
  0.4899056168314343  0.2402312431444155  0.3922522177399657
  0.6607078314228881  0.2632979350988489  0.4011026559192026
  0.8399661100787079  0.2295174835671142  0.3941093806594391
  0.0018246128012902  0.4921644804563028  0.4055265456151779
  0.1717034237951641  0.5230914922183695  0.4046577868693828
  0.3467979173484239  0.5026688534493393  0.4001069400804871
  0.4947626847109250  0.4807682432675274  0.3976565352477603
  0.6555295288952829  0.4941085341403352  0.3900231569488226
  0.8327529320710466  0.4806052896914886  0.3938843807853368
  0.9881037600881946  0.7538565343461245  0.4008327890096442
  0.1753654987836691  0.7604973306169517  0.3987595996231598
  0.3458774340658267  0.7528192384642435  0.3990288018358966
  0.5003755301079797  0.7613182311586092  0.4089580429565456
  0.6671301881331912  0.7326883391619923  0.4043377353497956
  0.8247016236633049  0.7711173480833059  0.3982115570937733
  0.0799004019940140  0.1437723631689105  0.4672084165666348
  0.2455505968927083  0.1119158151478270  0.4642545038915668
  0.4150888991595809  0.1152949116143943  0.4666401007841903
  0.5876100111499454  0.1362239330014375  0.4635775101787953
  0.7515272911378112  0.1145905316405493  0.4601426893533198
  0.9099391933199917  0.1369160476523548  0.4623302065931146
  0.0872128707110925  0.3894783208115316  0.4688881054347483
  0.2562786660137385  0.3718565561424795  0.4672835273074724
  0.4221689108040238  0.3798272638564616  0.4635203462521401
  0.5791813980464183  0.3595842244588719  0.4662273240579938
  0.7515991308863896  0.3584496820880644  0.4597691297395960
  0.9152664319117229  0.3768932233932690  0.4700250693480479
  0.0913970980185327  0.6268228325954754  0.4695664285411629
  0.2482045791491304  0.6242103188118863  0.4725811609754047
  0.4160496827889414  0.6216416097530386  0.4661478927878159
  0.5883237361317561  0.6069460006967256  0.4705644708187540
  0.7557015893743098  0.5982577715914760  0.4671917991460954
  0.9122935512591726  0.6403138117213943  0.4647809437742522
  0.0742793797150074  0.8783057573370191  0.4666354479064393
  0.2469482596435046  0.8690051381798819  0.4714488499398560
  0.4069488131763602  0.8878087543224625  0.4680296494896874
  0.5779443526196792  0.8848913596546718  0.4688678321816903
  0.7372171636588065  0.8703551997964182  0.4705628090767000
  0.9207174918587271  0.8736685891758731  0.4644957888377976
  0.9956335002399975  0.0050173931719032  0.5348110744562480
  0.1602458599914158  0.0139561853026748  0.5249898465691045
  0.3313144073093063  0.0087732102712483  0.5339346716970047
  0.5071932974669620  0.0035753416334096  0.5402625854383742
  0.6688555102250642  0.0077227729719446  0.5347741837826506
  0.8304704138804442  0.9827502386329183  0.5228471963647657
  0.9926197351776874  0.2421165984972941  0.5348389917227540
  0.1617486540815949  0.2603437444622752  0.5367008075199784
  0.3394194495127327  0.2525526361197336  0.5356638804783255
  0.4956352748278032  0.2432528930570913  0.5330958243081803
  0.6645754965861863  0.2490762931642400  0.5319063493459765
  0.8271722101388035  0.2448981985183859  0.5362022849037991
  0.9953075930879106  0.4988289312784904  0.5332084904194367
  0.1559839523054316  0.5126107737766936  0.5414304577538770
  0.3344479052859138  0.5063878745799014  0.5375964864870472
  0.5062149919477043  0.4838319457159551  0.5304779158764172
  0.6699196730048179  0.4828218087634137  0.5291505163237371
  0.8334561439189191  0.4749720020897185  0.5406188629347370
  0.9975977040974685  0.7481154871214901  0.5372548323207590
  0.1677493173083732  0.7535849450527267  0.5352936443487095
  0.3305054800590544  0.7500280014037085  0.5358513249820088
  0.5063680164528060  0.7419933387916036  0.5325810166198724
  0.6735788276783401  0.7547317527464618  0.5322998498643473
  0.8325432534552774  0.7554711765001001  0.5354392129526339
  0.0859950993632404  0.1324032849094748  0.5975464898698971
  0.2434374569711117  0.1248758810098778  0.5958518453232982
  0.4217022444697630  0.1206022920640870  0.6040030224462409
  0.5892751747531716  0.1410056567542309  0.5939285450700783
  0.7533291254822352  0.1050481104028385  0.6009334525242194
  0.9097096565623390  0.1320931474583043  0.6013674995487062
  0.0699427119654620  0.3916834506550239  0.5977897689065926
  0.2448269428399559  0.3707518009844962  0.5984152486156922
  0.4265061626165657  0.3674769597628140  0.6040080076724027
  0.5900957832633549  0.3886644290258326  0.5997639184666628
  0.7550001297154271  0.3523336664196418  0.6005442725351887
  0.9144288855746389  0.3916930876944671  0.6164032740010854
  0.0827272668974214  0.6398792688519577  0.6062985529195413
  0.2537350716636685  0.6264259617893165  0.6015496264778170
  0.4158791363939425  0.6443052982398493  0.6026929050109217
  0.5909829749551474  0.6302658839601655  0.5994880692857101
  0.7496915811395863  0.6149386107730785  0.5942100441740142
  0.9145719810087990  0.6201811602301536  0.6005632163946035
  0.0739996135396495  0.8915742084612508  0.6005196787527906
  0.2533548466529003  0.8696131477592953  0.5973364456742801
  0.4237120052409664  0.8806685841895813  0.6043300532824545
  0.5787194042161300  0.8735739709704312  0.5982899532648258
  0.7586820628458154  0.8686170283186714  0.6039003267873080
  0.9154936324173891  0.8695544494281416  0.5983511053724105
  0.9966106376332623  0.0028490592971939  0.6662545385737852
  0.1679029258764716  0.0163707017304319  0.6667779873207735
  0.3340793615350771  0.9952109306329148  0.6711141370363013
  0.5043489106736575  0.9809025553433176  0.6764493260746524
  0.6581210164110718  0.9934841483836008  0.6777966665319797
  0.8452658977096001  0.9981747583089315  0.6679771003868903
  0.9974148923795415  0.2495914367272013  0.6750491422200100
  0.1778991640627973  0.2409110924724052  0.6698884360973217
  0.3225511261087436  0.2323831886597099  0.6656885492302164
  0.5054148256424009  0.2573930582036807  0.6720493654642536
  0.6608170512032471  0.2462246055835617  0.6780701892740568
  0.8287421714735884  0.2609552584196679  0.6806202986300195
  0.0122828448179042  0.5199060126351601  0.6734252878849086
  0.1661227018629209  0.4876587264693816  0.6704853338430937
  0.3356604200667969  0.4921714892122616  0.6623637357287110
  0.5143089369541958  0.5135771060044934  0.6660155800664300
  0.6722419074791873  0.4934602242141595  0.6682296851790878
  0.8292619875405373  0.5035905048579026  0.6812354755383847
  0.9882521120893237  0.7474189919980986  0.6754635806882605
  0.1600770657854065  0.7505738082739889  0.6724657980229688
  0.3458908675147479  0.7389287602486810  0.6766058621761327
  0.5106018891149549  0.7391495360613788  0.6727805319679834
  0.6744654353071360  0.7433766919989435  0.6694776534615899
  0.8369762915992571  0.7611316230312101  0.6662279507009223
