Al 
 1.0000000000000000
    17.1214407669999993    0.0000000000000000    0.0000000000000000
     0.0000000000000000   11.4142938449999995    0.0000000000000000
     0.0000000000000000    0.0000000000000000   30.0889057250000000
  Al
 144
Direct
  0.0796930596302311  0.1503562132975735  0.3258350466316269
  0.2414528109087608  0.1311679916717616  0.3266606000840199
  0.3935784430588393  0.1163374640632445  0.3274020693884839
  0.5772078491810023  0.1090001726690259  0.3244534742879886
  0.7463933773979454  0.1326591045019658  0.3231666212414244
  0.9104046915282594  0.1020141951672351  0.3273648463664758
  0.0914847074680184  0.3959482786558664  0.3354013632876973
  0.2630053195452555  0.3901336394936660  0.3312087880856292
  0.4253987791750656  0.3685335297235814  0.3306408046515956
  0.5822775159912451  0.3622808433139650  0.3240044715850164
  0.7642195641163123  0.3849848321475379  0.3234487850421819
  0.9292489000496509  0.3765489182568000  0.3314271409915157
  0.0822868833980063  0.6282534949055363  0.3333095623902089
  0.2402578180177750  0.6234411078454236  0.3318804642238282
  0.4048847345464756  0.6355960428667238  0.3317644746284638
  0.5756425603501899  0.6026242265537189  0.3241633341253722
  0.7414644697698765  0.6462537323963558  0.3318458999891064
  0.9020350687873860  0.6139258455370527  0.3319060550514586
  0.0889171665350889  0.8812161432488512  0.3217401818623299
  0.2397543557147301  0.8714266633635976  0.3270594181769633
  0.4240495936529849  0.8854415469974263  0.3371511776704867
  0.5903118865720864  0.8750817295960372  0.3346705291323784
  0.7511534908200054  0.8988195099335119  0.3225886673550672
  0.9078359824693367  0.8529077779318377  0.3273312791769865
  0.0090763389667252  0.0006859819894535  0.3964135521914199
  0.1657290434032315  0.0114698291263414  0.3965418386779834
  0.3262301389241491  0.9907945382844663  0.4031981126492097
  0.4977472466234068  0.0123310300147613  0.4003887715328338
  0.6668948107455729  0.0075887305142353  0.4020299079852961
  0.8327751264649164  0.9873786458491162  0.3975478573174332
  0.0066968663186919  0.2438512655970616  0.3973973034873471
  0.1756902378097630  0.2682899215304020  0.3988536542234123
  0.3296948006198128  0.2445057081847011  0.3962782863882299
  0.4918207593971932  0.2312942032026336  0.3953829397695718
  0.6630639415510586  0.2514575180011936  0.3965840469261532
  0.8382980261604990  0.2424959474135564  0.3932060576789221
  0.0013193983092556  0.4907644814535612  0.4035607047653774
  0.1621884535180134  0.5206918693970245  0.4040313101150507
  0.3361533692359034  0.5045025192270228  0.4006330476147617
  0.4971947230286499  0.4927339418779437  0.4015197531747393
  0.6535705816047812  0.4826089178011695  0.3937035832498691
  0.8303127168713699  0.4933656060087176  0.3968911368577197
  0.9953671675135610  0.7616406339327075  0.3954816472475753
  0.1779569862994579  0.7667552735935370  0.4008008835622087
  0.3302782795533880  0.7558864452906505  0.3978802057282195
  0.5006669775432689  0.7611868169843844  0.4026726698117567
  0.6630178005743295  0.7245327755096006  0.4014449747823124
  0.8354997803439237  0.7528735563229230  0.3973069047196132
  0.0806754535904648  0.1420096610453084  0.4618443132165452
  0.2488073321615925  0.1257397101817822  0.4712065679483929
  0.4131538984519386  0.1178574880117781  0.4692005129408873
  0.5899579443961639  0.1258194347808119  0.4658158767254405
  0.7483225374756221  0.1219400883576955  0.4648627014833056
  0.9146607585842779  0.1398965211237735  0.4622291726762356
  0.0905554632404728  0.3868701875004165  0.4666324567707422
  0.2540066609570744  0.3791272643550908  0.4688399149151843
  0.4130032101988231  0.3648521806562972  0.4641557964135633
  0.5774788544114116  0.3692387857919213  0.4689791688993037
  0.7455429816749370  0.3519473087474208  0.4649982996349064
  0.9140807840286821  0.3809092405575792  0.4714963757625985
  0.0891268451508582  0.6337501117661126  0.4646446809258299
  0.2581149600749602  0.6195372307764520  0.4733568621661797
  0.4195704145322761  0.6258004303200064  0.4712796845987658
  0.5845319991580122  0.6197588826836445  0.4695508081658560
  0.7524127306406141  0.6037158402942798  0.4648959363243843
  0.9131369382262221  0.6328091862786629  0.4619722673546979
  0.0795090797863110  0.8804539410383473  0.4666231510152402
  0.2564696546136175  0.8642330514665317  0.4660269179662898
  0.4150158912850094  0.8833476811547776  0.4704461547845140
  0.5804493988119755  0.8732541964798174  0.4661851158098239
  0.7371546689181733  0.8705295426008897  0.4681944943014374
  0.9131065669504004  0.8842824739807635  0.4659697540396345
  0.9924065521839387  0.0083947374494808  0.5351570491518765
  0.1583277971106741  0.0132439204783763  0.5319542075171296
  0.3306018504534888  0.0009654561333049  0.5340506612923691
  0.5010892550897905  0.0048255284775350  0.5368390644588654
  0.6693578044021159  0.0108250235781450  0.5352344863315897
  0.8275454263936128  0.9858673828455309  0.5265498900093351
  0.9984352504345525  0.2444820536333407  0.5344255502997359
  0.1620424377688705  0.2612715285323023  0.5340340438718298
  0.3297619678644186  0.2434762971532735  0.5365685328524855
  0.5022854161067694  0.2416110919737760  0.5337844502153294
  0.6696393227664635  0.2505384948761147  0.5336488520637285
  0.8342592305392053  0.2456507636894466  0.5321934983728958
  0.9929824382985585  0.4972134130300201  0.5293023995474665
  0.1672575362652598  0.5163665908760386  0.5399378810410361
  0.3300575037406839  0.5066542073063304  0.5360497369832482
  0.5003182919343157  0.4838775026296863  0.5331333796785991
  0.6769909237043124  0.4769975325617702  0.5300684626343287
  0.8341564354518086  0.4825274410131502  0.5363206009380389
  0.0059200625332514  0.7569447674404075  0.5372109623305352
  0.1654586222358188  0.7595590334129864  0.5393263599651895
  0.3369663849271313  0.7563025901756957  0.5407973340313292
  0.5041059404670836  0.7449904580584240  0.5320495915110254
  0.6623192612304296  0.7543883237044877  0.5346392503278715
  0.8413970644203088  0.7475477778888390  0.5338874782226730
  0.0826805418576956  0.1502221708398642  0.6001570866366228
  0.2468945258478200  0.1261208112870341  0.6001431280033698
  0.4277099164525002  0.1150417203053879  0.6029262135952935
  0.5861463492805365  0.1295840128251053  0.5955975987890467
  0.7527275405957662  0.1176700037898841  0.6031359254424996
  0.9108322256417500  0.1258772570174708  0.6001697158762327
  0.0737572273960722  0.3856769467984553  0.5973783215740393
  0.2512948564639916  0.3679465464120439  0.5982175013112745
  0.4304707822372949  0.3632252731793940  0.6008463772405934
  0.5907557744494809  0.3787242608874680  0.6010344864410984
  0.7524641281843124  0.3664370355974483  0.6014406161990791
  0.9105863351201933  0.3910307602563740  0.6111162754822983
  0.0787363644418465  0.6387088066068620  0.6039106295880423
  0.2535616049536866  0.6198578813615605  0.6016642866795383
  0.4276561826568155  0.6334408504094368  0.6009946046318040
  0.5864874420705345  0.6230512457952234  0.5979559431119856
  0.7502032203245831  0.6228409831164637  0.5990360754470408
  0.9200913763264021  0.6194636388388861  0.6017334151489818
  0.0776564319611853  0.8818635770805321  0.6005795014667320
  0.2478202656973862  0.8841414227670956  0.5984069399054226
  0.4133215245319548  0.8767612027426301  0.6036643594156497
  0.5799272464930404  0.8786667082688899  0.5988546132147516
  0.7471129430097220  0.8762083871163913  0.6054214854634765
  0.9117451161053917  0.8677698449421688  0.5981167997428063
  0.0079134695405508  0.0080039993047857  0.6653508832448576
  0.1741886118455769  0.9958995409058528  0.6705438271633922
  0.3330642600470353  0.9947553614956022  0.6670146193892533
  0.4992961816903151  0.9837866584203047  0.6746240686026145
  0.6599298595114546  0.9863790220305128  0.6706259172208563
  0.8361510105851012  0.0004827280666525  0.6650491108878637
  0.0020296189130869  0.2608448705133191  0.6696292043369084
  0.1737721749290213  0.2400858114582733  0.6688099655043205
  0.3329048108489713  0.2438416285576184  0.6644837862411164
  0.5128026384860372  0.2382775524209400  0.6703676825056755
  0.6633110001986084  0.2377667893304529  0.6772682325588296
  0.8324375380528979  0.2633951815877753  0.6775484022691225
  0.0095097137101815  0.5111249175134583  0.6746586328373363
  0.1635826118908303  0.5118047668414480  0.6718463005852633
  0.3259194174099729  0.4903386995290728  0.6651757356323732
  0.5130701393384670  0.5061285506094311  0.6654283204245708
  0.6722162087073381  0.4821691183647638  0.6682110736680837
  0.8307893122765724  0.4991671037534955  0.6782672718816530
  0.9927020880602041  0.7611517732045912  0.6764835579609634
  0.1604666358041199  0.7545828166823404  0.6689000319236436
  0.3406979634122283  0.7362330174880828  0.6712155033015911
  0.5091907929152374  0.7482609188076322  0.6727143946342370
  0.6758006033172991  0.7367139933657456  0.6696880300056176
  0.8369021155986925  0.7484256245726606  0.6675367387425986
