Al 
 1.0000000000000000
    17.1214407669999993    0.0000000000000000    0.0000000000000000
     0.0000000000000000   11.4142938449999995    0.0000000000000000
     0.0000000000000000    0.0000000000000000   30.0889057250000000
  Al
 144
Direct
  0.0811561374366433  0.1550240447660387  0.3233321307499959
  0.2470078340691549  0.1248881463328054  0.3264851201231247
  0.3907171184386343  0.1284862664230807  0.3292997788140732
  0.5770892843926981  0.1172713807947355  0.3263232664470718
  0.7493750189954443  0.1291153022703701  0.3224886304834205
  0.9179017241522546  0.1120244508651862  0.3251351208785111
  0.0952957185206492  0.3972825705714956  0.3347233725296934
  0.2556472939144444  0.3816696905790934  0.3321523252238512
  0.4188724592513728  0.3673893503133308  0.3292396237517208
  0.5792234505821714  0.3396390571895252  0.3244441685324865
  0.7623225275034473  0.3792525458678517  0.3252188726780292
  0.9361782234409782  0.3798001049271217  0.3303526585794439
  0.0849385294024421  0.6239553753138901  0.3306344900317906
  0.2465218936560072  0.6204799084528914  0.3311502947653309
  0.4128350000558104  0.6291383503453166  0.3302772154901955
  0.5710418961261942  0.6206437381234249  0.3281724530046863
  0.7424959250218222  0.6386098079289459  0.3233138515874027
  0.9043018172770810  0.6015317367186634  0.3346941258695442
  0.0787316919378739  0.8744123934019855  0.3232729727328759
  0.2504578941899043  0.8589414407177460  0.3300605243263628
  0.4163598202401210  0.8793667077702607  0.3366380317242328
  0.5869132239950353  0.8798687099157995  0.3342168735516552
  0.7510057228818727  0.8873032477989444  0.3224570573843958
  0.9058513364069859  0.8635041408468314  0.3233956092964561
  0.9971444712121288  0.0104404180949137  0.3931405850419972
  0.1688076394581613  0.0181912260906930  0.3918052091274583
  0.3300989722134405  0.9973223183654600  0.4030193092042067
  0.5010436981760579  0.0103790914802755  0.3995080482442503
  0.6693034865434349  0.0061843510390195  0.4013848197199601
  0.8309306555217427  0.9932099308067184  0.3984169484116392
  0.0071022060383127  0.2450059581412502  0.3979908777490113
  0.1774348339805228  0.2705274668702031  0.3975302428516616
  0.3320544151259627  0.2598294769938088  0.3979353755644100
  0.4900247656827349  0.2376108445103728  0.3927394405101783
  0.6611137552055054  0.2616552579210388  0.4005223755939699
  0.8399205531649754  0.2314992093144243  0.3940867809675056
  0.0019974954482754  0.4910404512194333  0.4052088205344663
  0.1691317944212586  0.5233245333539949  0.4047508444244028
  0.3453120610851452  0.5027669760327605  0.4002943845841705
  0.4946371111666621  0.4827131730460545  0.3986957887282889
  0.6547060000701167  0.4912121657404204  0.3907812436738259
  0.8324655730767333  0.4835796305014435  0.3940429109772818
  0.9890365086937196  0.7559504001887732  0.3999005517173889
  0.1766218182892949  0.7620085936205369  0.3990936097759999
  0.3426808572855894  0.7540615404579153  0.3985262910387879
  0.5003457428951545  0.7619849390691765  0.4078363670701421
  0.6662990664890696  0.7302983533800903  0.4038325657654006
  0.8275203116847603  0.7681946968485461  0.3979789132062230
  0.0798933932380552  0.1440141652494842  0.4659817185824228
  0.2461650311651018  0.1140885294950106  0.4659840450212983
  0.4144546067453039  0.1145870272625700  0.4672087489150455
  0.5886490592208465  0.1347862619354181  0.4638842677619510
  0.7505881178393239  0.1157732592085726  0.4608954585037505
  0.9106605111207579  0.1384912655540629  0.4620158049965109
  0.0879347725748552  0.3896596723719618  0.4682499964860388
  0.2558779987980903  0.3733905976029304  0.4674925744578570
  0.4204377480821851  0.3771937238049964  0.4633478574269421
  0.5786522369715243  0.3612444235265787  0.4670954181069674
  0.7498913306844137  0.3563444270169830  0.4608422827580247
  0.9150929652017410  0.3778779536054602  0.4706688282197408
  0.0916254666501922  0.6274623815767029  0.4682340437623210
  0.2502523040151111  0.6229513710228125  0.4729776526294726
  0.4167692484007179  0.6222732738838125  0.4672286898196927
  0.5875013754325831  0.6095427447794078  0.4705435328688743
  0.7549972094004442  0.5989157185570949  0.4666733356252689
  0.9123233384719976  0.6393317097926876  0.4639490757020543
  0.0750421659885301  0.8787683352302904  0.4666992588013102
  0.2494100851740546  0.8676717223587476  0.4702331194532001
  0.4081957876740409  0.8880120082452635  0.4684068649359298
  0.5784740977575699  0.8819923629712725  0.4681336745422636
  0.7367615945214806  0.8708607063199363  0.4705525062759656
  0.9190149482237203  0.8757931183258408  0.4648331224747456
  0.9949384652740774  0.0059837253997030  0.5351341171115322
  0.1598662190436441  0.0146439194811179  0.5262152151596733
  0.3311058968195302  0.0072610711731681  0.5337425743155703
  0.5062926723262483  0.0045127627428800  0.5400964112329811
  0.6690470828879398  0.0090894803838827  0.5349895455528401
  0.8295300724559637  0.9818907899334881  0.5231370041789714
  0.9940185660544768  0.2418327438809685  0.5348250330895010
  0.1616417705532223  0.2603586380686873  0.5364748106006438
  0.3373057255281395  0.2502730382441806  0.5360165021421696
  0.4972718193441974  0.2426326181547502  0.5334225227959831
  0.6654872189238349  0.2497140899564777  0.5323802781797576
  0.8286183501183151  0.2460152189992968  0.5354757712778203
  0.9946435134608086  0.4977557155223211  0.5322603004034637
  0.1583651771424547  0.5139021370620760  0.5414088551071760
  0.3330222075112821  0.5072175360665073  0.5372621439857963
  0.5053026855470591  0.4830215583082355  0.5307926498214318
  0.6716555082306293  0.4805246889979641  0.5292090096440355
  0.8334643208008711  0.4754074210536500  0.5398787230239162
  0.9994427591036387  0.7504932075804642  0.5376280595860718
  0.1675291255586657  0.7546905763052046  0.5363132892730017
  0.3314750246333635  0.7512904535707615  0.5372309032351824
  0.5062576285464540  0.7423928378812471  0.5324460831650932
  0.6711870897073787  0.7552828161837112  0.5326345247140090
  0.8348047453780033  0.7548289992353882  0.5353700844831903
  0.0856160424784653  0.1368310664863561  0.5978555738919282
  0.2439000348643965  0.1256337027479075  0.5969027309982041
  0.4233323642931948  0.1189158101615352  0.6036151718508534
  0.5884820172038270  0.1386042817438962  0.5935210859184544
  0.7534716368533987  0.1072681338527430  0.6013399146306109
  0.9095700655061584  0.1305056642336686  0.6010899886256997
  0.0705104211981298  0.3908222497666040  0.5973381074163341
  0.2462327824727042  0.3695953562513180  0.5982284688088303
  0.4277911012090236  0.3660787129490620  0.6032971144217310
  0.5902201886816246  0.3871847054240612  0.6001042432393078
  0.7548015482965926  0.3553080072295966  0.6003937187051026
  0.9133985984486863  0.3925954650241441  0.6154457782296103
  0.0817962704808860  0.6398126856703504  0.6058837821028801
  0.2539844665632046  0.6244600057429134  0.6013116650156941
  0.4183678288223348  0.6428956621976645  0.6023824915952473
  0.5899813069160268  0.6285303407659031  0.5992673899409482
  0.7496939173915724  0.6167223391645567  0.5950964173855811
  0.9158890430660683  0.6195661418947814  0.6007446786268928
  0.0741508858557616  0.8895924827139406  0.6004817910339609
  0.2523683642516905  0.8723886151189234  0.5971912094187666
  0.4216204756502429  0.8800535658542091  0.6042609248130110
  0.5783146485595058  0.8749135194530294  0.5980928706572296
  0.7567149386733617  0.8702150246772451  0.6044845952934701
  0.9144113636847417  0.8684514464591482  0.5981806106376771
  0.9989831015253369  0.0038311612259006  0.6659903215872103
  0.1695055947390645  0.0128374126327742  0.6676886219663277
  0.3337762328398564  0.9953826451539018  0.6702470400325601
  0.5035183730925324  0.9810181998166354  0.6761837796944342
  0.6581338657969964  0.9917512334728230  0.6764549759976358
  0.8435569293816312  0.9983850209876914  0.6671565321606591
  0.9982319965117455  0.2521303585732246  0.6740072299521953
  0.1779867735122831  0.2396950733135783  0.6696478158479124
  0.3238237993782734  0.2344726740298844  0.6654014002032971
  0.5075758587297164  0.2533104578577634  0.6718383242234045
  0.6607825914864492  0.2446528920598329  0.6781901670503505
  0.8296474691182746  0.2620976856409289  0.6801397228280225
  0.0121596075256276  0.5184236607499043  0.6736898372198944
  0.1651508210366255  0.4932157938501013  0.6709393217722278
  0.3332482398909554  0.4918963955408843  0.6628881815209317
  0.5146161540903925  0.5126423131785075  0.6657806097400041
  0.6720795379661404  0.4907031548389230  0.6682366644957143
  0.8295078780620939  0.5018637226085886  0.6807598849625496
  0.9887912022351594  0.7501296283651090  0.6758580782518637
  0.1598387680828053  0.7511055976323519  0.6717406137906332
  0.3450725952565508  0.7380053566511280  0.6755247327958452
  0.5103156982466346  0.7407922132391889  0.6728499927858377
  0.6749011463025786  0.7418496592944511  0.6695933107085436
  0.8372788362314812  0.7590307484326028  0.6663904690737968
