Al 
 1.0000000000000000
    17.1214407669999993    0.0000000000000000    0.0000000000000000
     0.0000000000000000   11.4142938449999995    0.0000000000000000
     0.0000000000000000    0.0000000000000000   30.0889057250000000
  Al
 144
Direct
  0.0809032381591278  0.1545675995342312  0.3236555057536909
  0.2465598577507844  0.1257616125441530  0.3264834583810708
  0.3906774021548673  0.1268891461590018  0.3290216031942451
  0.5770828596997359  0.1161228209120106  0.3259919150815180
  0.7489778561577756  0.1294508464618908  0.3224783276826861
  0.9167937566477580  0.1104641265698903  0.3254442049005423
  0.0947250889729986  0.3973912062888548  0.3348480031837383
  0.2566875101113388  0.3829102403837756  0.3320499619133291
  0.4199120913852705  0.3673578109115168  0.3294772528654330
  0.5795616230571865  0.3425827346921609  0.3243308377244085
  0.7627161859631366  0.3801750733709099  0.3249310589542884
  0.9352688373553160  0.3797046106271851  0.3305075329388703
  0.0847475408025631  0.6241621336146704  0.3309558709450209
  0.2454921905930511  0.6208759031645554  0.3312420229267078
  0.4116032111960406  0.6301178239905388  0.3304792833239534
  0.5716919582413785  0.6179769064811561  0.3275286941329934
  0.7424053952573535  0.6397942876859590  0.3244770710251544
  0.9037679836982144  0.6028318609489942  0.3343614451103473
  0.0802812110677788  0.8753576993619093  0.3229356390959279
  0.2488085002875857  0.8604570841938055  0.3296497416906310
  0.4174374164687960  0.8802340413201445  0.3367875885090866
  0.5874143500460939  0.8794359192353525  0.3342464525602152
  0.7511640039539437  0.8890475519381551  0.3223905877022386
  0.9058998136357014  0.8619841168982977  0.3239393312965023
  0.9988207320122898  0.0092682036608284  0.3935949053195420
  0.1684939976290022  0.0173554319426232  0.3924187242937696
  0.3295873330284436  0.9961334581359730  0.4031602249303800
  0.5005454924399821  0.0110808431706359  0.3996177232198098
  0.6690301450610392  0.0066504333102702  0.4016536895842861
  0.8311619444683851  0.9920972907982817  0.3983228938113867
  0.0071354976291173  0.2444662839324337  0.3979430195778580
  0.1774260730355742  0.2704293442867819  0.3976774731976399
  0.3316776944931740  0.2578074508997363  0.3976033595020345
  0.4901491711010048  0.2363589054772578  0.3930392187767074
  0.6613485485301274  0.2605951835822919  0.4001215634105617
  0.8398265190225273  0.2327292459851685  0.3940252965115102
  0.0020372117320423  0.4906549696417072  0.4050220407276044
  0.1679011736874819  0.5232667111173359  0.4047508444244028
  0.3443308352509047  0.5028983902069853  0.4003615189631494
  0.4947726137818668  0.4838599807397898  0.3991693852136592
  0.6543614029021393  0.4898191754936374  0.3911687619208026
  0.8322617350909298  0.4850549736307406  0.3942413229785212
  0.9896579517220719  0.7569307499284903  0.3993525091880024
  0.1771317052853021  0.7627725480200305  0.3992940158677040
  0.3409578714457028  0.7545679230759281  0.3983335289605318
  0.5003819548009419  0.7621811842360188  0.4072075638769346
  0.6658522582966921  0.7292049874505400  0.4035444196932489
  0.8288770900257965  0.7664442600478716  0.3978579383846967
  0.0799085788759660  0.1440194218164532  0.4653489272082859
  0.2465119645850655  0.1154228214106398  0.4668248865005875
  0.4141800971369152  0.1145230723644473  0.4675002184713050
  0.5890701686413748  0.1338067882901958  0.4640776945370286
  0.7501337168279911  0.1165100546787264  0.4613560934011003
  0.9111149121320907  0.1390922663775176  0.4619313885001712
  0.0883149975856235  0.3895720629224786  0.4679522123099743
  0.2556537186074067  0.3741974806326708  0.4676381430617813
  0.4194787166418142  0.3756877173683801  0.4633368899293861
  0.5784180277098989  0.3622466756286666  0.4674865921864628
  0.7491057659540248  0.3554008732460489  0.4614258865673654
  0.9149878338623580  0.3783773274675145  0.4709443450522826
  0.0915723169175042  0.6279713924782002  0.4675952701167899
  0.2513538468266454  0.6223197068920386  0.4731395063055255
  0.4171535618524621  0.6226701446899714  0.4678069760544606
  0.5870755935080822  0.6109515047270978  0.4704757337930740
  0.7546444353505148  0.5993712876944076  0.4664064598514076
  0.9123548778738125  0.6386404712362651  0.4635758484367414
  0.0755275223386812  0.8790031285549055  0.4667112233440985
  0.2505933968051089  0.8670488191729220  0.4695890282330964
  0.4089410520576665  0.8878525590472041  0.4686434970044096
  0.5787515276809415  0.8805879834960566  0.4677953438600832
  0.7366272600322691  0.8710394295968820  0.4704198992600619
  0.9181207477759690  0.8769688371379054  0.4650132553133918
  0.9945705055862369  0.0064331618755518  0.5352408009513946
  0.1596641332468303  0.0147946077342290  0.5269187967453077
  0.3310188714330410  0.0064436750094898  0.5336900632666661
  0.5057208746526046  0.0048807224307094  0.5398837082500779
  0.6691288517074598  0.0096466764825958  0.5350736297007690
  0.8291317414923017  0.9818128175234481  0.5233965682877955
  0.9947054241384451  0.2418634071882876  0.5348094127141941
  0.1616195761593525  0.2604129559273669  0.5362724104184750
  0.3361983420866394  0.2491761679366509  0.5361607413524508
  0.4980842509724287  0.2423636571448367  0.5335554621602976
  0.6660087871797734  0.2500067055177517  0.5325886606333206
  0.8293852248328138  0.2463612763247555  0.5350490359183708
  0.9942971641038415  0.4973474554877294  0.5317853745244503
  0.1596372663489880  0.5144654658222531  0.5413334120179274
  0.3323744816480841  0.5074829926984414  0.5370810141019178
  0.5047425691333468  0.4827902693615999  0.5310193114375881
  0.6725263461585178  0.4795215608013814  0.5292704941000309
  0.8335133820925831  0.4758752555138903  0.5394463377414833
  0.0003971628376688  0.7516137324393546  0.5377430521362039
  0.1673206150688895  0.7553055946405769  0.5368211176446830
  0.3320970517247125  0.7519659224262769  0.5378680151386596
  0.5061157012382871  0.7426346399618207  0.5323729665147202
  0.6699068236188934  0.7554037172239980  0.5328522129230741
  0.8359109606935101  0.7542551573412731  0.5352733710956515
  0.0853251791061726  0.1390125417784879  0.5980702709652962
  0.2442136766935556  0.1259175573642331  0.5974135505055825
  0.4241103362046283  0.1181536079510313  0.6034506593875142
  0.5880836862401652  0.1373593514667398  0.5934888481226082
  0.7534874065543061  0.1084972944289923  0.6015725585181613
  0.9095875873960555  0.1297460903066492  0.6009530610804558
  0.0708556024291037  0.3902238772266337  0.5971991857806255
  0.2469634452814154  0.3691248935075931  0.5981636608687271
  0.4283640670086605  0.3654733316531331  0.6029292047309907
  0.5902861878002372  0.3862779476219101  0.6002680910058253
  0.7546000465627754  0.3568595705799442  0.6004080096867663
  0.9129033130275934  0.3928311344432538  0.6149236588762651
  0.0813313563356149  0.6397706331345985  0.6056428295050601
  0.2540335278549167  0.6235453630903087  0.6012478541208232
  0.4196720414936795  0.6419678781276373  0.6022046851954767
  0.5894632430380676  0.6276840334838953  0.5991268065631855
  0.7497149436594491  0.6176150794547904  0.5955966017438143
  0.9165361848662699  0.6193444899875890  0.6008573447381493
  0.0743868473063766  0.8885026211623694  0.6004694941427619
  0.2518193450349131  0.8739182761069002  0.5972064974456628
  0.4204873934368937  0.8796969953948124  0.6042094108093391
  0.5782918701026395  0.8755460596782982  0.5980712680105285
  0.7555631664441221  0.8710692168097064  0.6047311978142734
  0.9139189985786317  0.8680458147080409  0.5981131439102875
  0.0002429702065739  0.0043498091668412  0.6658726702497919
  0.1702701332015770  0.0107855993258775  0.6681326394431382
  0.3336401461616550  0.9953852734373864  0.6697943814970692
  0.5030242557974327  0.9811837816761586  0.6760192672310950
  0.6582407493253690  0.9909093066632894  0.6757201536613874
  0.8425873848073221  0.9985786378710493  0.6667730020946118
  0.9986928222160406  0.2534033238742155  0.6734435670475019
  0.1777759267705207  0.2393288658147385  0.6695241822391000
  0.3247191679520179  0.2356308709520523  0.6652581580382482
  0.5085716861388714  0.2512174681096095  0.6716984055424635
  0.6608754575029042  0.2438013282108561  0.6781855141725996
  0.8300837641767137  0.2625576352507158  0.6798549002399787
  0.0120019105165532  0.5175458140660826  0.6738317499913001
  0.1647454813170046  0.4959851285482655  0.6711364043798240
  0.3320719370158599  0.4917343180593403  0.6631756628962617
  0.5146447731772246  0.5119878705908679  0.6656812375651791
  0.6720363173043941  0.4893583497893558  0.6682330086631956
  0.8296538938112369  0.5011462012173211  0.6804787182070244
  0.9891650025529654  0.7515892017934993  0.6760235877604353
  0.1597897067910932  0.7514551593357899  0.6713617366023370
  0.3445831504654236  0.7376207511678968  0.6749580787554547
  0.5101626737415328  0.7417418996715868  0.6728702660388957
  0.6751061524143753  0.7411084833518232  0.6696345219114811
  0.8373571006730219  0.7577849420609516  0.6665097821532691
