Al 
 1.0000000000000000
    17.1214407669999993    0.0000000000000000    0.0000000000000000
     0.0000000000000000   11.4142938449999995    0.0000000000000000
     0.0000000000000000    0.0000000000000000   30.0889057250000000
  Al
 144
Direct
  0.0798694466551957  0.1512366882648797  0.3254501871719364
  0.2425280708854494  0.1302524729246621  0.3265994479764351
  0.3927928783284503  0.1181579884235055  0.3276609688004863
  0.5771786460311737  0.1100830254646384  0.3246528833344603
  0.7468495305982681  0.1319512201501415  0.3229642210592555
  0.9114028551894006  0.1033257086259987  0.3270321656072788
  0.0919887538340599  0.3964292545335292  0.3353412082253450
  0.2619802889862721  0.3890061058788171  0.3313673182775742
  0.4245951084917829  0.3682006138155453  0.3304656570391112
  0.5817471867903581  0.3589464276666342  0.3240134449921077
  0.7640706280521865  0.3842471605828893  0.3236581645409772
  0.9303037178214595  0.3773076160893246  0.3312755901161972
  0.0828545926306740  0.6272652603153657  0.3328785065014191
  0.2410176839763149  0.6229583797787712  0.3317668010673392
  0.4058840663336098  0.6347365941672934  0.3315474511162203
  0.5750146926288753  0.6050667780053108  0.3246601949994976
  0.7416607149367245  0.6452777631291128  0.3306098962493924
  0.9021437045047483  0.6118503776787955  0.3323597106321818
  0.0876240510606791  0.8802173955247427  0.3218405510823874
  0.2410912759138829  0.8694274157263909  0.3274898093689314
  0.4229807583692586  0.8846469292906135  0.3371548335030053
  0.5898422999228428  0.8760287877449506  0.3345721540027857
  0.7512469408994569  0.8973152556858852  0.3224869687413666
  0.9073331042292885  0.8543393163363933  0.3267789161182598
  0.0074310335053826  0.0022244039223786  0.3959569054749996
  0.1662290013282969  0.0124878509293362  0.3958126662647184
  0.3267914234638545  0.9914078044308487  0.4032802027066739
  0.4981736126109042  0.0125360361265520  0.4002372206575153
  0.6672726995043547  0.0076596941683167  0.4021086745586525
  0.8324994487305346  0.9879095591129843  0.3976807966817478
  0.0068744214696497  0.2436436312017864  0.3975249252770890
  0.1761528157030478  0.2688015607153839  0.3986419482857415
  0.3299821596141261  0.2467984474776766  0.3964208638564572
  0.4914341096934625  0.2317366309225238  0.3949452369125664
  0.6627491315959064  0.2532491312431251  0.3972730051817130
  0.8386554727144010  0.2406692903918315  0.3933675790065642
  0.0015670410198020  0.4904718658922874  0.4038372186431516
  0.1628887450509030  0.5213603294965814  0.4042340426456303
  0.3376917911688734  0.5041643467520176  0.4005815336110898
  0.4967046941745262  0.4910606013928144  0.4011734461307001
  0.6535209362500726  0.4836567268169887  0.3932469365334488
  0.8307005347010935  0.4920663578728817  0.3963085300936114
  0.9942037140243901  0.7610186068413767  0.3961486705080233
  0.1781368777024021  0.7662173515737102  0.4005340077883474
  0.3319831594403810  0.7558811887236815  0.3978921702710078
  0.5006477034643821  0.7616248642318005  0.4034968938705065
  0.6634990684835046  0.7250496712615516  0.4018215255317332
  0.8346184292820970  0.7553905758065754  0.3973550952391772
  0.0804418283918361  0.1425992726403304  0.4623508121945834
  0.2484370362217660  0.1238578592068829  0.4705771000583638
  0.4132566935393353  0.1169323322252355  0.4689362959543123
  0.5900186869478073  0.1272833886816763  0.4654622580163639
  0.7484802344846965  0.1210087999096890  0.4642312395028118
  0.9140095283431003  0.1400901380071314  0.4621111889904065
  0.0902202110804406  0.3875325149385095  0.4667889928722225
  0.2543191346602403  0.3783300183647936  0.4686238884481732
  0.4141117617663163  0.3667804646394225  0.4639361141140336
  0.5775834016877980  0.3680508016569290  0.4688419090056490
  0.7459950464342836  0.3522136414738498  0.4644449395309473
  0.9142624276206159  0.3805920943504500  0.4715658365804528
  0.0897599694391420  0.6324911639770389  0.4650052789515329
  0.2570420363502578  0.6197974308414171  0.4734266553324448
  0.4191738357576038  0.6252309688983656  0.4707409478248814
  0.5849408432556125  0.6183369813185321  0.4697465613798090
  0.7528093094152863  0.6028108346811183  0.4651199391532541
  0.9129085695945626  0.6338920390742754  0.4621610412520245
  0.0787445413237985  0.8802121389577737  0.4666457507071737
  0.2556677361193244  0.8645668434690628  0.4665191259626641
  0.4138425087248968  0.8844682060136678  0.4701280973553916
  0.5801702166996143  0.8743221556690177  0.4664071245482292
  0.7369011855776612  0.8708256625401429  0.4686960080533139
  0.9138430703890774  0.8831286575310696  0.4658431292951249
  0.9927324593360257  0.0081722094477935  0.5352507714037181
  0.1585573338683268  0.0137485509073996  0.5310562021111853
  0.3306666814461082  0.0019212752271667  0.5339157278375899
  0.5019507480097338  0.0051356659287056  0.5375330079405871
  0.6693583884651125  0.0109073764606592  0.5352451214807348
  0.8277369990564883  0.9847363448527026  0.5258443143332359
  0.9978727977688538  0.2437662844310629  0.5345352252752954
  0.1619075192166624  0.2610884247828824  0.5344993316469304
  0.3307431936986591  0.2442971976949311  0.5365489242962490
  0.5016867515352834  0.2416216051077140  0.5338170203595863
  0.6690161275491215  0.2506550154439274  0.5334747014964766
  0.8334403742180116  0.2460528910625746  0.5326571244059425
  0.9930431808502019  0.4969339388861687  0.5296430566685223
  0.1660748086972020  0.5162386810797931  0.5402795352073243
  0.3302105282457857  0.5070887501757670  0.5361913174062432
  0.5011447410744647  0.4834158008309099  0.5327159500746517
  0.6763969316367989  0.4769125513957715  0.5298836769179315
  0.8340331981595319  0.4809697450013388  0.5368756227840519
  0.0050825161961675  0.7562412635610574  0.5374555707608739
  0.1657699278129915  0.7588222379428327  0.5390059760971916
  0.3360961310622394  0.7555912014458920  0.5404234420691948
  0.5045661821083821  0.7444665535505145  0.5320708618093155
  0.6634774581526315  0.7547238678960083  0.5343075666139069
  0.8406628972336181  0.7490003425612705  0.5342045386065631
  0.0831793316567679  0.1486828728124442  0.5997336747612811
  0.2463881432297922  0.1262539776502486  0.5997293542319410
  0.4272742054570576  0.1153755123079189  0.6029617748752476
  0.5863881513611172  0.1309034111343224  0.5950010333916855
  0.7529553251644292  0.1159213191781992  0.6028763613336756
  0.9105039822376766  0.1264256921712357  0.6002920200914020
  0.0731772528404764  0.3864277597805263  0.5972483733454218
  0.2506161752619753  0.3679482986010336  0.5981566815521006
  0.4303002358422959  0.3634442968031020  0.6011607788371972
  0.5906716693779746  0.3802022323002497  0.6009407641892567
  0.7528799810378715  0.3648530567507919  0.6011857049680062
  0.9108719419255168  0.3917106095843637  0.6118368068368828
  0.0791265185235564  0.6390382181369190  0.6042183842164304
  0.2537058685138399  0.6202100713484830  0.6015057564875932
  0.4263718281273542  0.6351790218871837  0.6011989989044376
  0.5869342502629119  0.6237748998479548  0.5981782841988016
  0.7500758945913305  0.6219981802124352  0.5984405070949119
  0.9195517021175698  0.6192691458610334  0.6015705644276965
  0.0769356982234158  0.8828886076394857  0.6005316432955788
  0.2485544328840769  0.8824085078563176  0.5980951970961051
  0.4144808895801497  0.8773446816761883  0.6037796843141925
  0.5795184023954402  0.8782330414939480  0.5986352632636327
  0.7486256661708428  0.8754058845591249  0.6054125120563852
  0.9120178735247906  0.8675683432083574  0.5980612975582049
  0.0066781763028016  0.0073232738823012  0.6654176852754256
  0.1736244069908886  0.9985523550362042  0.6701739233821871
  0.3331296751026514  0.9948902800478062  0.6674662808795118
  0.4999777832073143  0.9831628791399843  0.6749012471772102
  0.6595589795086315  0.9870509865080489  0.6715315666402487
  0.8372326952547522  0.0001173966623075  0.6652545022057296
  0.0014256977746317  0.2596490015278733  0.6702975569909996
  0.1746815610146835  0.2396591534392901  0.6689196404798800
  0.3312881244744606  0.2423654093338264  0.6645967847007836
  0.5123330518367935  0.2404485145791338  0.6706428669898064
  0.6626691149653762  0.2388768010554051  0.6775224790930811
  0.8320760030580200  0.2635064455886189  0.6780000637593808
  0.0101107145336538  0.5122761056796677  0.6745363286221669
  0.1636316731825423  0.5093052692476921  0.6717848161292679
  0.3268089453537517  0.4906190497674191  0.6648108170773300
  0.5135274606647827  0.5072788626811456  0.6654256616372844
  0.6721513777147188  0.4832300687980055  0.6682077501839758
  0.8305673683378751  0.4992152889507113  0.6786916808022270
  0.9919819383854309  0.7595090960267810  0.6764759139475154
  0.1602446918654226  0.7539642939689889  0.6693280966767362
  0.3414397234178744  0.7363714404182663  0.6718765442906449
  0.5093525783652878  0.7471552875551541  0.6727788702259294
  0.6757743204824533  0.7374551693083735  0.6696960063674765
  0.8370703257417051  0.7501296283651090  0.6673446413611640
