Al 
 1.0000000000000000
    17.1214407669999993    0.0000000000000000    0.0000000000000000
     0.0000000000000000   11.4142938449999995    0.0000000000000000
     0.0000000000000000    0.0000000000000000   30.0889057250000000
  Al
 144
Direct
  0.0814294789190389  0.1554130307217441  0.3230237114247863
  0.2473232280873037  0.1240251932553958  0.3264897730008757
  0.3909303014323829  0.1300150513165626  0.3295782867823120
  0.5771085584715850  0.1183130571490908  0.3266735616720405
  0.7497645890141577  0.1288174301421272  0.3225338298672874
  0.9190009307118027  0.1136355886411824  0.3248243751144260
  0.0958634277533169  0.3970801927431895  0.3345940889978976
  0.2546339446153925  0.3804440343808234  0.3322384034622449
  0.4178118008495984  0.3674979860306899  0.3289847125206479
  0.5789197378239541  0.3369073945546388  0.3245704609285853
  0.7618885686969944  0.3782897180180314  0.3255139980668074
  0.9370543179358359  0.3797414065959681  0.3301964548263744
  0.0850722798286570  0.6238879160377880  0.3303383675977801
  0.2475930651917198  0.6200760288907737  0.3310645488753480
  0.4140714614195529  0.6281439830936821  0.3300811299278316
  0.5704210371608384  0.6233333482225594  0.3288374821746696
  0.7425677647704004  0.6374007975260778  0.3221848640359619
  0.9048981455965808  0.6004585209624942  0.3350012158011107
  0.0771763321780033  0.8734767244815048  0.3236488587854752
  0.2521160490371716  0.8575388134315199  0.3304600071161278
  0.4153201881062233  0.8785352940946651  0.3364625517633377
  0.5864062573140110  0.8802261564696910  0.3341979296922404
  0.7507942920771138  0.8855493066202906  0.3225521090298806
  0.9058817076828076  0.8649987580550149  0.3228714958526462
  0.9955184398296729  0.0115039968116398  0.3927042115786349
  0.1690494415387420  0.0189464195452382  0.3912176171371882
  0.3305860807525813  0.9985576116031734  0.4028361852298635
  0.5015378154711575  0.0095774650175041  0.3993997026623340
  0.6695353595530738  0.0056376680742443  0.4010594506258004
  0.8307203928429769  0.9943856496187831  0.3984897327136013
  0.0070560650615835  0.2456595246343950  0.3980320889519487
  0.1773536492239993  0.2705379800041411  0.3974076062880815
  0.3324381445147104  0.2617603892604186  0.3982963059385238
  0.4899441649892080  0.2389109687407036  0.3924758882204248
  0.6608988200227671  0.2625585113452106  0.4008510681722375
  0.8399661100787079  0.2304251174637602  0.3941156952792440
  0.0019244875737040  0.4915442055539617  0.4053773211787349
  0.1704044676907885  0.5232667111173359  0.4047192713253782
  0.3461385102252943  0.5026890036227205  0.4002103004362416
  0.4946295183477067  0.4816802576366475  0.3981919485375369
  0.6550967382148232  0.4926445802394708  0.3903993753498325
  0.8326291107157735  0.4820928981437135  0.3939242625946311
  0.9885178607527638  0.7549253696298197  0.4003964155462819
  0.1760307465367643  0.7612463914100330  0.3989151386794077
  0.3443279149359218  0.7534771854298623  0.3987582702295167
  0.5003399022651889  0.7616949517913870  0.4084206355763043
  0.6667271846655568  0.7314626829637223  0.4040974474487972
  0.8261232329969606  0.7697550211438421  0.3980975615888737
  0.0798933932380552  0.1439291840834855  0.4666045395042361
  0.2458432124539908  0.1129145628719356  0.4651252567278267
  0.4147583195035213  0.1148463512330403  0.4669212675397154
  0.5881601984927161  0.1355992776266222  0.4637177612081471
  0.7510577044885676  0.1151284536603762  0.4604889963973590
  0.9102656845350754  0.1377641071233522  0.4621487443608254
  0.0875662288240185  0.3896290090646427  0.4685634010374102
  0.2560870933508629  0.3726073691245506  0.4673732613783846
  0.4213372050969056  0.3785762009178414  0.4634090095345267
  0.5789068884380296  0.3603490549528603  0.4666736679736797
  0.7507247885805217  0.3573650771034623  0.4602875932604226
  0.9151852471551993  0.3773803319323956  0.4703600765461204
  0.0915676444135316  0.6270812804714508  0.4688944200545532
  0.2491980703062990  0.6235856634370710  0.4727902081257892
  0.4164001205868845  0.6219298448418383  0.4666730032768581
  0.5879183964121354  0.6082014441078200  0.4705747736194883
  0.7553493993873769  0.5985433783967913  0.4669355585213792
  0.9123052325191039  0.6398950385528647  0.4643512172791056
  0.0746239768829847  0.8785361701891600  0.4666746650189120
  0.2481905616372127  0.8683252888518923  0.4708572697686566
  0.4075322921099354  0.8879944863553669  0.4682011412696531
  0.5782042606531537  0.8834300340372918  0.4684916137806803
  0.7369584237513251  0.8706285412788057  0.4706006967955296
  0.9198863702146054  0.8746857348843730  0.4646589719074937
  0.9952941596389896  0.0055097582779988  0.5349908749464833
  0.1600601279585059  0.0143626931482768  0.5255697945459264
  0.3312040194029542  0.0080390430845790  0.5338249967214452
  0.5067844533693617  0.0040720872119794  0.5402213742354368
  0.6689553849974781  0.0084455509301811  0.5348895086811934
  0.8299757125223479  0.9822044317626379  0.5229542125530390
  0.9933217788995666  0.2419177250469672  0.5348340064965922
  0.1616861593409617  0.2603358596118217  0.5366180527656925
  0.3383844898828076  0.2514005718590295  0.5358506602851872
  0.4964512108340140  0.2429313663774879  0.5332683131333783
  0.6650077032036494  0.2493995720328330  0.5321536165636014
  0.8278795104276518  0.2455272343656753  0.5358626248279755
  0.9949846062508064  0.4982533371953857  0.5327365556761204
  0.1571409811016403  0.5132818621597349  0.5414407605546114
  0.3337166584142060  0.5068495763786779  0.5374349651594050
  0.5057950506531692  0.4833693678226837  0.5306115199375533
  0.6707817499877580  0.4816329485339266  0.5291684631379197
  0.8334438785959910  0.4751104250199019  0.5402708941486439
  0.9985065061201343  0.7493236214298635  0.5374638794711436
  0.1676751413078086  0.7541158583165948  0.5358008080235692
  0.3309423591804901  0.7506438958335755  0.5365572330065187
  0.5063411495549638  0.7421799469190029  0.5325162086797691
  0.6724177104411554  0.7550602881820239  0.5324500713460226
  0.8336763356686266  0.7552328787975058  0.5354259190162024
  0.0858414907951420  0.1346189278869051  0.5976817556730870
  0.2436395427679255  0.1252841410444695  0.5963812763416806
  0.4225269414209223  0.1197349585142032  0.6038002899156613
  0.5888821003564787  0.1398229291862076  0.5936686486128434
  0.7534179030577141  0.1061204500645130  0.6011255499056538
  0.9096109499159184  0.1312906449010381  0.6012279132161760
  0.0702055403139193  0.3913137387782047  0.5975345253271088
  0.2455178893649003  0.3701394109326086  0.5983128853051700
  0.4271696581806713  0.3667480491431137  0.6036587094926664
  0.5901571098779950  0.3879810753198636  0.5999354102466284
  0.7549370509117973  0.3537949920370216  0.6004382533921480
  0.9139096535706865  0.3922134878243973  0.6159389832712170
  0.0822629368151468  0.6398459772611541  0.6061034644024097
  0.2538863439797805  0.6254245857817234  0.6014130312809839
  0.4170998280567775  0.6436736341090753  0.6025460070133541
  0.5904894417230442  0.6293932938433127  0.5993880324140635
  0.7496869086356137  0.6158295988743228  0.5946324590041234
  0.9152331403209182  0.6198464921331277  0.6006463034973002
  0.0740206398075261  0.8906236459343578  0.6004987408029110
  0.2528800034366874  0.8709509440529040  0.5972344147121689
  0.4226992400049109  0.8803759686283074  0.6043008066223052
  0.5784542396156864  0.8742546963929156  0.5981656549591917
  0.7577580751852389  0.8693941241355874  0.6042067520220528
  0.9149370203816563  0.8689560768881712  0.5982610389530875
  0.9977664983034779  0.0033326634583412  0.6661179433769522
  0.1687147734417064  0.0147052460957562  0.6672362957792477
  0.3339228326519958  0.9953265751062327  0.6706877340252626
  0.5039610928439338  0.9809253338001831  0.6763273542078938
  0.6580929813872364  0.9926098060777584  0.6771479224341250
  0.8444558023333550  0.9982483502464975  0.6675590060861212
  0.9978056305242481  0.2508582693667284  0.6745426432419719
  0.1780305782370260  0.2402224821994672  0.6697694553662602
  0.3230983931365313  0.2333889451397771  0.6655449747167567
  0.5065204568949112  0.2553701560151135  0.6719549785155904
  0.6607662377225453  0.2454606511840681  0.6781519469831102
  0.8292000768629006  0.2615615158100917  0.6803952987559171
  0.0122513054160893  0.5192147740787376  0.6735532420230613
  0.1656116467409206  0.4904350699235044  0.6707216335631628
  0.3344479052859138  0.4920400750380367  0.6626166528693194
  0.5145034299320541  0.5131749786313654  0.6658926111544390
  0.6721484573997358  0.4920724905343455  0.6682356674504819
  0.8293770479508619  0.5026802426777721  0.6810124697547472
  0.9884869054139457  0.7487357620238313  0.6756709660965912
  0.1599345544142430  0.7508112298820883  0.6721091881781953
  0.3455088903149899  0.7384407756150596  0.6760744370672855
  0.5104628821217707  0.7399240035948103  0.6728197490804561
  0.6746862111198402  0.7426048527489963  0.6695411320080501
  0.8371515104982287  0.7601503971969981  0.6662954174283120
